(set-logic QF_BV)
(declare-fun _substvar_184_ () (_ BitVec 79))
(declare-fun _substvar_183_ () (_ BitVec 79))
(declare-fun _substvar_162_ () (_ BitVec 79))
(declare-fun _substvar_205_ () (_ BitVec 79))
(declare-fun _substvar_216_ () (_ BitVec 79))
(declare-fun _substvar_176_ () (_ BitVec 79))
(declare-fun _substvar_328_ () Bool)
(declare-fun _substvar_325_ () Bool)
(assert (and true true true true true true true true true true true true true true true true true true true true true true true true true true true true true true true true true true true true true true true true true true true true true true true true true true true true true true true true true true true true true true true true true true true true true true true true true true true true true true true true true true true true true true true true true true true true true (ite _substvar_328_ true (= _substvar_216_ (_ bv0 79))) (ite _substvar_325_ true (= _substvar_205_ (concat ((_ extract 77 0) _substvar_216_) (_ bv0 1)))) (= _substvar_183_ (concat (_ bv0 78) (bvxor (_ bv0 1) ((_ extract 69 69) _substvar_205_)))) true true true true true true true true true true true true true true true true true true true true true true true true true true true true true true true true true true true true true true true true true true true true true true true true true true true true true true true true true true true true true true true true true true true true true true true true true true true true true true true true true true true true true true true true true true true true true (ite _substvar_328_ (= _substvar_162_ (_ bv0 79)) true) (ite _substvar_325_ (= _substvar_176_ (_ bv0 79)) (= _substvar_176_ (concat ((_ extract 77 0) _substvar_162_) (bvxor ((_ extract 78 78) _substvar_162_) ((_ extract 69 69) _substvar_162_))))) (= _substvar_184_ (concat ((_ extract 77 0) _substvar_176_) (_ bv0 1))) true true true true true true true true true true true true true true true true true true true true true true true true true true true true true true true true true true true true true true true true true true true true true true true true true true true true true true true true true true true true true true true true true true true true true true true true true true true true true true true true true true true true true true true true true true true true true true true true true true true true true true true true true true true true true true true true true true true true true true true true true true true true true true true true true true true true true true true true true true true true true true true true true true true true true true true true true true true true true true true true true true true true true true true true true true true true true true true true true true true true true true true true true true true true true true true true true true true true true true true true true true (= (or false (= _substvar_183_ (_ bv0 79)) false (= _substvar_184_ (_ bv0 79)) false false) false)))
(check-sat)
(exit)
